[[69, 70, 71, 81, 80, 78, 79, 88, 89, 90, 99, 98, 97, 96, 87], [86, 95, 94, 93, 92, 91, 83, 82, 73, 84, 85], [76, 77, 75, 74, 66, 67, 68, 59, 58, 57, 56, 65, 64, 55, 46, 47], [49, 50, 40, 48, 39, 38, 41, 32, 31, 30, 29, 37, 28], [19, 21, 20, 11, 10, 2, 3, 4, 12, 13, 22, 23, 15, 14, 5], [6, 7, 8, 9, 18, 17, 16, 24, 25, 26, 27, 35, 36, 44], [34, 33, 42, 43, 45, 54, 53, 52, 51, 60, 63, 62, 61, 72]]